Geographic Exponential Decay
20 120 277 314 0 181 187 174 226 131 148 279 34 4 184 180 308 20 88 177 54
p edge 320 321
e 0 196 32.0
e 0 10 52.0
e 0 89 55.0
e 0 289 9.0
e 0 106 34.0
e 1 180 35.0
e 1 0 99.0
e 2 97 1.0
e 2 1 3.0
e 3 308 78.0
e 3 2 1.0
e 4 268 1.0
e 4 230 81.0
e 4 255 4.0
e 4 168 99.0
e 4 145 2.0
e 4 3 10.0
e 5 178 1.0
e 5 4 88.0
e 6 276 5.0
e 6 5 1.0
e 7 167 6.0
e 7 6 1.0
e 8 216 1.0
e 8 214 16.0
e 8 7 17.0
e 9 12 3.0
e 9 8 14.0
e 11 315 3.0
e 11 9 1.0
e 13 83 1.0
e 13 11 2.0
e 14 258 1.0
e 14 13 4.0
e 15 135 1.0
e 15 14 3.0
e 16 170 4.0
e 16 15 1.0
e 17 298 3.0
e 17 16 11.0
e 18 86 3.0
e 18 17 4.0
e 19 277 69.0
e 20 112 15.0
e 20 249 53.0
e 20 231 30.0
e 20 232 80.0
e 20 169 86.0
e 20 18 93.0
e 21 22 1.0
e 21 20 33.0
e 23 284 1.0
e 23 21 1.0
e 24 30 1.0
e 24 23 1.0
e 25 202 11.0
e 25 238 8.0
e 25 24 5.0
e 26 302 2.0
e 26 25 15.0
e 27 28 2.0
e 27 26 2.0
e 29 250 4.0
e 29 27 1.0
e 31 32 2.0
e 31 29 2.0
e 33 34 29.0
e 34 152 1.0
e 34 91 94.0
e 34 277 33.0
e 34 146 58.0
e 35 176 5.0
e 35 31 4.0
e 36 37 20.0
e 36 35 11.0
e 37 38 15.0
e 39 40 5.0
e 39 36 12.0
e 41 188 11.0
e 41 39 2.0
e 42 140 2.0
e 42 41 9.0
e 43 44 1.0
e 43 42 1.0
e 45 66 1.0
e 45 43 1.0
e 46 49 4.0
e 46 45 2.0
e 47 283 1.0
e 47 46 5.0
e 48 234 4.0
e 48 47 6.0
e 50 89 46.0
e 51 52 1.0
e 51 48 5.0
e 53 58 1.0
e 53 51 1.0
e 54 55 72.0
e 54 133 26.0
e 54 56 81.0
e 54 253 72.0
e 54 187 73.0
e 54 53 84.0
e 57 117 5.0
e 57 54 55.0
e 59 93 17.0
e 59 57 5.0
e 60 299 3.0
e 60 59 4.0
e 61 113 6.0
e 61 60 1.0
e 62 244 1.0
e 62 61 1.0
e 63 109 4.0
e 63 62 2.0
e 64 65 2.0
e 64 63 1.0
e 67 103 3.0
e 67 64 2.0
e 68 69 1.0
e 68 67 2.0
e 70 209 5.0
e 70 68 2.0
e 71 184 65.0
e 71 70 9.0
e 72 89 35.0
e 73 159 1.0
e 73 71 3.0
e 74 79 8.0
e 74 73 3.0
e 75 119 1.0
e 75 74 3.0
e 76 194 6.0
e 76 75 10.0
e 77 78 2.0
e 77 76 6.0
e 80 81 1.0
e 80 77 1.0
e 82 107 5.0
e 82 80 1.0
e 84 85 7.0
e 84 82 1.0
e 87 88 22.0
e 88 90 5.0
e 88 92 52.0
e 88 93 54.0
e 88 94 59.0
e 92 95 19.0
e 96 225 1.0
e 96 84 7.0
e 98 210 7.0
e 98 96 1.0
e 99 100 1.0
e 99 98 1.0
e 101 271 2.0
e 101 99 4.0
e 102 174 60.0
e 104 192 5.0
e 104 101 1.0
e 105 114 1.0
e 105 104 4.0
e 108 110 3.0
e 108 105 1.0
e 111 175 4.0
e 111 108 1.0
e 115 235 2.0
e 115 111 1.0
e 116 318 1.0
e 116 115 2.0
e 118 120 20.0
e 118 116 3.0
e 120 121 82.0
e 120 163 73.0
e 120 122 72.0
e 120 123 86.0
e 124 125 2.0
e 124 118 1.0
e 126 127 2.0
e 126 124 2.0
e 128 251 1.0
e 128 126 1.0
e 129 236 7.0
e 129 128 5.0
e 130 203 1.0
e 130 129 12.0
e 131 132 35.0
e 131 257 50.0
e 131 139 57.0
e 131 186 91.0
e 131 134 23.0
e 131 130 51.0
e 132 141 17.0
e 136 137 7.0
e 136 131 17.0
e 138 233 2.0
e 138 136 7.0
e 142 143 4.0
e 142 138 3.0
e 144 313 7.0
e 147 286 1.0
e 147 142 2.0
e 148 149 42.0
e 148 310 46.0
e 148 295 81.0
e 148 150 43.0
e 148 151 47.0
e 148 147 32.0
e 153 154 2.0
e 153 148 75.0
e 155 208 8.0
e 155 153 6.0
e 156 307 4.0
e 156 155 8.0
e 157 158 1.0
e 157 156 1.0
e 160 243 1.0
e 160 157 2.0
e 161 211 6.0
e 161 160 10.0
e 162 164 3.0
e 162 161 2.0
e 165 187 39.0
e 166 171 6.0
e 166 162 1.0
e 172 187 98.0
e 173 218 11.0
e 173 166 3.0
e 174 177 61.0
e 174 179 18.0
e 174 180 80.0
e 174 181 66.0
e 177 259 58.0
e 177 219 76.0
e 177 180 79.0
e 177 181 78.0
e 180 204 91.0
e 180 199 7.0
e 181 269 25.0
e 181 182 31.0
e 181 270 13.0
e 183 184 87.0
e 184 300 6.0
e 184 301 95.0
e 184 185 43.0
e 187 272 94.0
e 187 195 71.0
e 189 190 2.0
e 189 173 1.0
e 191 193 1.0
e 191 189 3.0
e 197 198 2.0
e 197 191 4.0
e 200 303 2.0
e 200 197 1.0
e 201 245 4.0
e 201 200 3.0
e 205 206 1.0
e 205 201 3.0
e 207 267 1.0
e 207 205 1.0
e 212 213 2.0
e 212 207 5.0
e 215 304 5.0
e 215 212 2.0
e 217 220 4.0
e 217 215 1.0
e 221 222 1.0
e 221 217 2.0
e 223 305 11.0
e 223 221 6.0
e 224 226 88.0
e 224 223 2.0
e 226 227 27.0
e 226 292 56.0
e 226 228 91.0
e 226 273 26.0
e 229 237 2.0
e 229 224 2.0
e 239 240 9.0
e 239 229 5.0
e 241 242 10.0
e 241 239 9.0
e 246 247 5.0
e 246 241 9.0
e 248 252 7.0
e 248 246 12.0
e 254 256 3.0
e 254 248 3.0
e 260 294 1.0
e 260 254 2.0
e 261 262 2.0
e 261 260 4.0
e 263 264 2.0
e 263 261 5.0
e 265 266 28.0
e 265 263 5.0
e 266 274 35.0
e 266 275 28.0
e 277 278 88.0
e 277 279 62.0
e 277 306 50.0
e 279 280 56.0
e 279 308 37.0
e 279 281 70.0
e 279 282 3.0
e 285 287 1.0
e 285 265 5.0
e 288 290 1.0
e 288 285 2.0
e 291 293 1.0
e 291 288 1.0
e 296 297 3.0
e 296 291 2.0
e 308 309 77.0
e 308 311 90.0
e 308 312 76.0
e 311 313 17.0
e 314 316 58.0
e 314 317 15.0
e 314 319 43.0
e 314 296 98.0
